15 3 
4706	4706	4706	
806	494	498	
410	390	423	
832	313	333	
331	666	670	
442	394	431	
664	723	775	
77	896	899	
223	255	272	
841	577	598	
16	307	321	
944	681	696	
14	97	104	
502	7	7	
689	17	18	
930	458	465	
